Generated by cif2cell 1.0.12. Rb2MnCl4 :
   5.11032200000000     
     0.9322165652167527    0.0000000000000000    0.0000000000000000
     0.0000000000000000    0.9322165652167527    0.0000000000000000
     0.0000000000000000    0.0000000000000000    2.7397786517754481
   C    O    N 
     1     2     4
Direct
  0.0000000000000000  0.0000000000000000  0.0000000000000000
  0.5000000000000000  0.5000000000000000  0.8565621172314014
  0.5000000000000000  0.5000000000000000  0.1434378827685985
  0.5000000000000000  0.5000000000000000  0.3440196263283136
  0.5000000000000000  0.5000000000000000  0.6559803736716865
  0.5000000000000000  0.0000000000000000  0.5000000000000000
  0.0000000000000000  0.5000000000000000  0.5000000000000000
 
  0.00000000E+00  0.00000000E+00  0.00000000E+00
  0.00000000E+00  0.00000000E+00  0.00000000E+00
  0.00000000E+00  0.00000000E+00  0.00000000E+00
  0.00000000E+00  0.00000000E+00  0.00000000E+00
  0.00000000E+00  0.00000000E+00  0.00000000E+00
  0.00000000E+00  0.00000000E+00  0.00000000E+00
  0.00000000E+00  0.00000000E+00  0.00000000E+00
